p edge 27 162
e 1 5
e 1 12
e 1 21
e 1 2
e 1 3
e 1 4
e 1 11
e 1 23
e 1 2
e 1 3
e 1 4
e 1 5
e 1 11
e 1 12
e 1 21
e 1 23
e 2 3
e 2 26
e 2 3
e 2 26
e 3 6
e 3 17
e 3 19
e 3 6
e 3 17
e 3 19
e 4 19
e 4 5
e 4 6
e 4 7
e 4 11
e 4 23
e 4 5
e 4 6
e 4 7
e 4 11
e 4 19
e 4 23
e 5 12
e 5 21
e 5 6
e 5 7
e 5 6
e 5 7
e 5 12
e 5 21
e 6 25
e 6 7
e 6 10
e 6 7
e 6 10
e 6 25
e 7 12
e 7 15
e 7 18
e 7 23
e 7 9
e 7 14
e 7 21
e 7 9
e 7 12
e 7 14
e 7 15
e 7 18
e 7 21
e 7 23
e 8 10
e 8 14
e 8 22
e 8 13
e 8 10
e 8 13
e 8 14
e 8 22
e 9 10
e 9 24
e 9 14
e 9 21
e 9 10
e 9 14
e 9 21
e 9 24
e 10 14
e 10 24
e 10 14
e 10 24
e 11 20
e 11 12
e 11 13
e 11 14
e 11 23
e 11 12
e 11 13
e 11 14
e 11 20
e 11 23
e 12 21
e 12 15
e 12 18
e 12 23
e 12 13
e 12 14
e 12 13
e 12 14
e 12 15
e 12 18
e 12 21
e 12 23
e 13 16
e 13 14
e 13 14
e 13 16
e 14 26
e 14 21
e 14 21
e 14 26
e 15 18
e 15 23
e 15 16
e 15 20
e 15 27
e 15 16
e 15 18
e 15 20
e 15 23
e 15 27
e 16 20
e 16 27
e 16 20
e 16 27
e 17 18
e 17 19
e 17 18
e 17 19
e 18 23
e 18 19
e 18 24
e 18 19
e 18 23
e 18 24
e 19 27
e 19 27
e 20 21
e 20 27
e 20 21
e 20 27
e 22 23
e 22 24
e 22 25
e 22 23
e 22 24
e 22 25
e 23 24
e 23 24
e 24 26
e 24 26
e 25 26
e 25 27
e 25 26
e 25 27
e 26 27
e 26 27
